NAME: sim-grid-A-55
TYPE: TSP
COMMENT: Semi-regular Grid
DIMENSION: 55
EDGE_WEIGHT_TYPE: EUC_2D
NODE_COORD_SECTION
1 550 50
2 700 50
3 850 50
4 1000 50
5 1150 50
6 1300 50
7 100 100
8 250 100
9 550 100
10 700 100
11 1000 100
12 1300 100
13 1450 100
14 50 250
15 200 250
16 500 250
17 650 250
18 800 250
19 1100 250
20 1550 250
21 50 300
22 200 300
23 350 300
24 500 300
25 650 300
26 950 300
27 1100 300
28 1550 300
29 300 450
30 650 450
31 800 450
32 1000 450
33 1350 450
34 1500 450
35 650 500
36 1000 500
37 1150 500
38 1350 500
39 1500 500
40 100 650
41 350 650
42 550 650
43 600 650
44 1050 650
45 1100 650
46 1550 650
47 100 700
48 300 700
49 350 700
50 550 700
51 600 700
52 1050 700
53 1100 700
54 1350 700
55 1550 700
EOF
